phase2/problem_log/problem172.sol
# Solution for model Resale_Solver
# Objective value = 0
list[0] 0
list[1] 0
indicator[0] 0
indicator[1] 0
